
Gurobi 7.5.2 (linux64, Matlab) logging started Fri Aug 17 14:41:17 2018


Gurobi 7.5.2 (linux64) logging started Fri Aug 17 14:41:17 2018


Gurobi 7.5.2 (linux64, Matlab) logging started Fri Aug 17 14:41:22 2018


Gurobi 7.5.2 (linux64) logging started Fri Aug 17 14:41:22 2018


Gurobi 7.5.2 (linux64, Matlab) logging started Fri Aug 17 14:43:17 2018


Gurobi 7.5.2 (linux64) logging started Fri Aug 17 14:43:17 2018


Gurobi 7.5.2 (linux64, Matlab) logging started Fri Aug 17 14:43:39 2018


Gurobi 7.5.2 (linux64) logging started Fri Aug 17 14:43:39 2018


Gurobi 7.5.2 (linux64, Matlab) logging started Fri Aug 17 14:44:41 2018


Gurobi 7.5.2 (linux64) logging started Fri Aug 17 14:44:41 2018


Gurobi 7.5.2 (linux64, Matlab) logging started Fri Aug 17 14:48:24 2018


Gurobi 7.5.2 (linux64) logging started Fri Aug 17 14:48:24 2018


Gurobi 7.5.2 (linux64, Matlab) logging started Mon Aug 20 11:01:01 2018


Gurobi 7.5.2 (linux64) logging started Mon Aug 20 11:01:01 2018


Gurobi 7.5.2 (linux64, Matlab) logging started Mon Aug 20 11:01:01 2018


Gurobi 7.5.2 (linux64) logging started Mon Aug 20 11:01:01 2018


Gurobi 7.5.2 (linux64, Matlab) logging started Mon Aug 20 11:01:02 2018


Gurobi 7.5.2 (linux64) logging started Mon Aug 20 11:01:02 2018


Gurobi 7.5.2 (linux64, Matlab) logging started Mon Aug 20 11:01:02 2018


Gurobi 7.5.2 (linux64) logging started Mon Aug 20 11:01:02 2018


Gurobi 7.5.2 (linux64, Matlab) logging started Mon Aug 20 11:03:19 2018


Gurobi 7.5.2 (linux64) logging started Mon Aug 20 11:03:19 2018


Gurobi 7.5.2 (linux64, Matlab) logging started Mon Aug 20 11:03:20 2018


Gurobi 7.5.2 (linux64) logging started Mon Aug 20 11:03:20 2018


Gurobi 7.5.2 (linux64, Matlab) logging started Mon Aug 20 11:03:20 2018


Gurobi 7.5.2 (linux64) logging started Mon Aug 20 11:03:20 2018


Gurobi 7.5.2 (linux64, Matlab) logging started Mon Aug 20 11:03:20 2018


Gurobi 7.5.2 (linux64) logging started Mon Aug 20 11:03:20 2018


Gurobi 7.5.2 (linux64, Matlab) logging started Mon Aug 20 11:05:21 2018


Gurobi 7.5.2 (linux64) logging started Mon Aug 20 11:05:21 2018


Gurobi 7.5.2 (linux64, Matlab) logging started Mon Aug 20 11:05:21 2018


Gurobi 7.5.2 (linux64) logging started Mon Aug 20 11:05:21 2018


Gurobi 7.5.2 (linux64, Matlab) logging started Mon Aug 20 11:05:21 2018


Gurobi 7.5.2 (linux64) logging started Mon Aug 20 11:05:21 2018


Gurobi 7.5.2 (linux64, Matlab) logging started Mon Aug 20 11:05:22 2018


Gurobi 7.5.2 (linux64) logging started Mon Aug 20 11:05:22 2018


Gurobi 7.5.2 (linux64, Matlab) logging started Mon Aug 20 11:05:35 2018


Gurobi 7.5.2 (linux64) logging started Mon Aug 20 11:05:35 2018


Gurobi 7.5.2 (linux64, Matlab) logging started Mon Aug 20 11:05:48 2018


Gurobi 7.5.2 (linux64) logging started Mon Aug 20 11:05:48 2018


Gurobi 7.5.2 (linux64, Matlab) logging started Mon Aug 20 11:10:52 2018


Gurobi 7.5.2 (linux64) logging started Mon Aug 20 11:10:52 2018


Gurobi 7.5.2 (linux64, Matlab) logging started Mon Aug 20 11:11:05 2018


Gurobi 7.5.2 (linux64) logging started Mon Aug 20 11:11:05 2018


Gurobi 7.5.2 (linux64, Matlab) logging started Mon Aug 20 11:32:29 2018


Gurobi 7.5.2 (linux64) logging started Mon Aug 20 11:32:29 2018

